Please solve the following SAT Problem encoded in DIMACS format, only return a single solution assignment without explanations, if there is any: 
p cnf 10 45
-10 1 -5 0
-7 1 -8 0
6 -1 -8 0
-4 -2 -10 0
-7 6 -1 0
-8 -7 9 0
-10 -8 9 0
9 -8 -1 0
6 -1 3 0
9 1 -4 0
2 9 6 0
6 2 -4 0
-10 9 -5 0
6 -2 9 0
-1 -8 -7 0
-10 4 9 0
-9 -4 -10 0
-8 4 -10 0
-4 2 1 0
-5 3 -4 0
6 -3 -7 0
-5 -8 -10 0
6 5 -8 0
-1 9 -10 0
-1 2 -10 0
-3 6 8 0
-10 3 -8 0
-10 3 2 0
5 -4 6 0
6 -10 -5 0
-10 1 -9 0
-10 -1 3 0
9 3 -7 0
-10 -1 6 0
-7 6 4 0
-5 -4 9 0
6 10 -4 0
10 -4 -8 0
9 -1 2 0
5 -10 3 0
-1 -8 -3 0
-10 -3 -1 0
3 -6 2 0
-5 8 -10 0
-5 2 -7 0

